c description: Random 3-CNF over 10 variables and 20 clauses
p cnf 10 20
-8 -9 -10 0
-4 9 10 0
2 -3 -5 0
5 -7 -8 0
-4 -6 9 0
2 -4 8 0
-4 -6 7 0
2 -9 10 0
1 -2 -3 0
6 -7 10 0
-3 -5 -10 0
-2 5 -8 0
1 3 6 0
-3 6 -10 0
2 5 -9 0
2 -3 -4 0
2 5 8 0
1 -3 6 0
-1 -3 4 0
-6 9 10 0